proyfinal/src/viki/013/experimentInOfficeAgust.take6.output/df332fb5-b71d-4e3a-8bca-25a49f54b849.als.dat
{'cnf.clauses': '118081',
 'cnf.totvars': '69608',
 'conflict literals': '61',
 'conflicts': '24',
 'decisions': '3074',
 'memused.mb': '14.84',
 'outcome': 'UNSAT',
 'propagations': '42162',
 'restarts': '1',
 'solver.msecs': 32,
 'task.msecs': 128}
