proyfinal/src/viki/013/experimentInOfficeAgust.take6.output/df332fb5-b71d-4e3a-8bca-25a49f54b849.als.out
Reading from standard input... Use '--help' for help.
============================[ Problem Statistics ]=============================
|                                                                             |
|  Number of variables:         69608                                         |
|  Number of clauses:          118081                                         |
|  Parse time:                   0.02 s                                       |
|                                                                             |
============================[ Search Statistics ]==============================
| Conflicts |          ORIGINAL         |          LEARNT          | Progress |
|           |    Vars  Clauses Literals |    Limit  Clauses Lit/Cl |          |
===============================================================================
===============================================================================
restarts              : 1
conflicts             : 24             (738 /sec)
decisions             : 3074           (0.00 % random) (94579 /sec)
propagations          : 42162          (1297212 /sec)
conflict literals     : 61             (8.96 % deleted)
Memory used           : 14.84 MB
CPU time              : 0.032502 s

UNSATISFIABLE
